Set parameter Username
Academic license - for non-commercial use only - expires 2022-05-11
Set parameter MIPGap to value 0.04
Set parameter LazyConstraints to value 1
Warning: variables 954 and 1140 have the same name "d(350510758,279556951,2305432922)[0]"
Warning: linear constraint 2663 and linear constraint 2748 have the same name "pos_upper[0]"
Warning: to let Gurobi read it back, use rlp format
Gurobi Optimizer version 9.5.0 build v9.5.0rc5 (win64)
Thread count: 6 physical cores, 12 logical processors, using up to 12 threads
Optimize a model with 3173 rows, 29086 columns and 9425 nonzeros
Model fingerprint: 0x7e15d4b6
Variable types: 503 continuous, 28583 integer (28413 binary)
Coefficient statistics:
  Matrix range     [5e-01, 4e+02]
  Objective range  [1e+00, 1e+00]
  Bounds range     [1e+00, 1e+00]
  RHS range        [1e+00, 4e+02]
Presolve removed 1027 rows and 271 columns
Presolve time: 0.02s
Presolved: 2146 rows, 28815 columns, 6365 nonzeros
Variable types: 484 continuous, 28331 integer (28246 binary)
Found heuristic solution: objective 286.5000000
Found heuristic solution: objective 270.0000000

Root relaxation: objective 2.369888e+00, 605 iterations, 0.01 seconds (0.00 work units)

    Nodes    |    Current Node    |     Objective Bounds      |     Work
 Expl Unexpl |  Obj  Depth IntInf | Incumbent    BestBd   Gap | It/Node Time

     0     0    2.36989    0  287  270.00000    2.36989  99.1%     -    0s
     0     0   26.03394    0  441  270.00000   26.03394  90.4%     -    0s
     0     0   27.24326    0  457  270.00000   27.24326  89.9%     -    0s
     0     0   53.33902    0  447  270.00000   53.33902  80.2%     -    0s
     0     0   54.28362    0  447  270.00000   54.28362  79.9%     -    0s
     0     0   54.30514    0  448  270.00000   54.30514  79.9%     -    0s
     0     0   65.26524    0  419  270.00000   65.26524  75.8%     -    0s
     0     0   66.12151    0  424  270.00000   66.12151  75.5%     -    0s
     0     0   66.12151    0  427  270.00000   66.12151  75.5%     -    0s
     0     0   72.21818    0  428  270.00000   72.21818  73.3%     -    0s
     0     0   72.67380    0  426  270.00000   72.67380  73.1%     -    0s
     0     0   72.67380    0  429  270.00000   72.67380  73.1%     -    0s
     0     0   75.08318    0  425  270.00000   75.08318  72.2%     -    0s
     0     0   75.23748    0  427  270.00000   75.23748  72.1%     -    0s
     0     0   75.25309    0  426  270.00000   75.25309  72.1%     -    0s
     0     0   76.13415    0  420  270.00000   76.13415  71.8%     -    0s
     0     0   76.31181    0  426  270.00000   76.31181  71.7%     -    0s
     0     0   76.41854    0  426  270.00000   76.41854  71.7%     -    0s
     0     0   77.75381    0  422  270.00000   77.75381  71.2%     -    0s
     0     0   77.94569    0  417  270.00000   77.94569  71.1%     -    0s
     0     0   78.18326    0  414  270.00000   78.18326  71.0%     -    0s
     0     0   79.04543    0  412  270.00000   79.04543  70.7%     -    0s
     0     0   79.11065    0  414  270.00000   79.11065  70.7%     -    0s
     0     0   79.18689    0  411  270.00000   79.18689  70.7%     -    0s
     0     0   79.56735    0  412  270.00000   79.56735  70.5%     -    0s
     0     0   79.56735    0  387  270.00000   79.56735  70.5%     -    0s
     0     2   79.56735    0  372  270.00000   79.56735  70.5%     -    1s
* 1364  1362             194     182.5000000   81.10898  55.6%   9.8    2s
* 1365  1325             194     176.5000000   81.10898  54.0%   9.8    2s
* 1776  1650             194     176.0000000   81.10898  53.9%   9.2    2s
H 1800  1570                     170.0000000   81.10898  52.3%   9.2    2s
H 1826  1493                     165.0000000   93.93019  43.1%   9.2    3s
H 1859  1438                     155.9999991  140.69724  9.81%   9.1    4s
H 1859  1366                     154.0000000  140.69724  8.64%   9.1    4s
  1865  1370  140.97840   30  113  154.00000  140.97840  8.46%   9.1    5s
H 1866  1302                     150.9999991  141.00096  6.62%   9.0    5s
H 1872  1241                     149.9999999  141.00096  6.00%  13.4    5s
* 2546  1464              60     147.9999985  141.71428  4.25%  17.1    8s
H 2588  1389                     147.0000000  141.71428  3.60%  17.2    8s
H 2589  1331                     146.9999999  141.71428  3.60%  17.2    8s
H 2592  1276                     146.9999995  141.71428  3.60%  17.2    8s
H 2593  1225                     145.9999999  141.71428  2.94%  17.2    8s

Cutting planes:
  Learned: 1
  Gomory: 70
  Implied bound: 1
  Projected implied bound: 1
  MIR: 101
  Flow cover: 215
  RLT: 31
  Relax-and-lift: 5

Explored 2610 nodes (47761 simplex iterations) in 8.73 seconds (6.90 work units)
Thread count was 12 (of 12 available processors)

Solution count 10: 146 147 147 ... 170

Optimal solution found (tolerance 4.00e-02)
Best objective 1.459999998947e+02, best bound 1.417142843921e+02, gap 2.9354%

User-callback calls 7865, time in user-callback 0.35 sec